\ENCODING=ISO-8859-1
\Problem name: TSP

Minimize
 obj: x(1,1) + 509 x(1,2) + 501 x(1,3) + 312 x(1,4) + 1071 x(1,5) + 736 x(1,6)
      + 656 x(1,7) + 60 x(1,8) + 1039 x(1,9) + 726 x(1,10) + 2373 x(1,11)
      + 479 x(1,12) + 448 x(1,13) + 479 x(1,14) + 619 x(1,15) + 183 x(1,16)
      + 509 x(2,1) + x(2,2) + 126 x(2,3) + 474 x(2,4) + 1579 x(2,5)
      + 1226 x(2,6) + 1133 x(2,7) + 532 x(2,8) + 1449 x(2,9) + 1122 x(2,10)
      + 2845 x(2,11) + 958 x(2,12) + 941 x(2,13) + 978 x(2,14) + 1127 x(2,15)
      + 599 x(2,16) + 501 x(3,1) + 126 x(3,2) + x(3,3) + 541 x(3,4)
      + 1567 x(3,5) + 1184 x(3,6) + 1084 x(3,7) + 536 x(3,8) + 1371 x(3,9)
      + 1045 x(3,10) + 2784 x(3,11) + 913 x(3,12) + 904 x(3,13) + 946 x(3,14)
      + 1115 x(3,15) + 553 x(3,16) + 312 x(4,1) + 474 x(4,2) + 541 x(4,3)
      + x(4,4) + 1216 x(4,5) + 980 x(4,6) + 919 x(4,7) + 271 x(4,8)
      + 1333 x(4,9) + 1029 x(4,10) + 2612 x(4,11) + 751 x(4,12) + 704 x(4,13)
      + 720 x(4,14) + 783 x(4,15) + 494 x(4,16) + 1071 x(5,1) + 1579 x(5,2)
      + 1567 x(5,3) + 1216 x(5,4) + x(5,5) + 498 x(5,6) + 607 x(5,7)
      + 1050 x(5,8) + 850 x(5,9) + 871 x(5,10) + 1504 x(5,11) + 713 x(5,12)
      + 691 x(5,13) + 641 x(5,14) + 453 x(5,15) + 1033 x(5,16) + 736 x(6,1)
      + 1226 x(6,2) + 1184 x(6,3) + 980 x(6,4) + 498 x(6,5) + x(6,6)
      + 115 x(6,7) + 740 x(6,8) + 470 x(6,9) + 379 x(6,10) + 1639 x(6,11)
      + 271 x(6,12) + 289 x(6,13) + 261 x(6,14) + 308 x(6,15) + 631 x(6,16)
      + 656 x(7,1) + 1133 x(7,2) + 1084 x(7,3) + 919 x(7,4) + 607 x(7,5)
      + 115 x(7,6) + x(7,7) + 667 x(7,8) + 455 x(7,9) + 288 x(7,10)
      + 1719 x(7,11) + 177 x(7,12) + 216 x(7,13) + 207 x(7,14) + 343 x(7,15)
      + 535 x(7,16) + 60 x(8,1) + 532 x(8,2) + 536 x(8,3) + 271 x(8,4)
      + 1050 x(8,5) + 740 x(8,6) + 667 x(8,7) + x(8,8) + 1066 x(8,9)
      + 759 x(8,10) + 2378 x(8,11) + 493 x(8,12) + 454 x(8,13) + 479 x(8,14)
      + 598 x(8,15) + 232 x(8,16) + 1039 x(9,1) + 1449 x(9,2) + 1371 x(9,3)
      + 1333 x(9,4) + 850 x(9,5) + 470 x(9,6) + 455 x(9,7) + 1066 x(9,8)
      + x(9,9) + 328 x(9,10) + 1440 x(9,11) + 591 x(9,12) + 650 x(9,13)
      + 656 x(9,14) + 776 x(9,15) + 878 x(9,16) + 726 x(10,1) + 1122 x(10,2)
      + 1045 x(10,3) + 1029 x(10,4) + 871 x(10,5) + 379 x(10,6) + 288 x(10,7)
      + 759 x(10,8) + 328 x(10,9) + x(10,10) + 1752 x(10,11) + 333 x(10,12)
      + 400 x(10,13) + 427 x(10,14) + 622 x(10,15) + 557 x(10,16)
      + 2373 x(11,1) + 2845 x(11,2) + 2784 x(11,3) + 2612 x(11,4)
      + 1504 x(11,5) + 1639 x(11,6) + 1719 x(11,7) + 2378 x(11,8)
      + 1440 x(11,9) + 1752 x(11,10) + x(11,11) + 1895 x(11,12) + 1926 x(11,13)
      + 1900 x(11,14) + 1849 x(11,15) + 2248 x(11,16) + 479 x(12,1)
      + 958 x(12,2) + 913 x(12,3) + 751 x(12,4) + 713 x(12,5) + 271 x(12,6)
      + 177 x(12,7) + 493 x(12,8) + 591 x(12,9) + 333 x(12,10) + 1895 x(12,11)
      + x(12,12) + 68 x(12,13) + 105 x(12,14) + 336 x(12,15) + 362 x(12,16)
      + 448 x(13,1) + 941 x(13,2) + 904 x(13,3) + 704 x(13,4) + 691 x(13,5)
      + 289 x(13,6) + 216 x(13,7) + 454 x(13,8) + 650 x(13,9) + 400 x(13,10)
      + 1926 x(13,11) + 68 x(13,12) + x(13,13) + 52 x(13,14) + 287 x(13,15)
      + 353 x(13,16) + 479 x(14,1) + 978 x(14,2) + 946 x(14,3) + 720 x(14,4)
      + 641 x(14,5) + 261 x(14,6) + 207 x(14,7) + 479 x(14,8) + 656 x(14,9)
      + 427 x(14,10) + 1900 x(14,11) + 105 x(14,12) + 52 x(14,13) + x(14,14)
      + 237 x(14,15) + 397 x(14,16) + 619 x(15,1) + 1127 x(15,2) + 1115 x(15,3)
      + 783 x(15,4) + 453 x(15,5) + 308 x(15,6) + 343 x(15,7) + 598 x(15,8)
      + 776 x(15,9) + 622 x(15,10) + 1849 x(15,11) + 336 x(15,12)
      + 287 x(15,13) + 237 x(15,14) + x(15,15) + 593 x(15,16) + 183 x(16,1)
      + 599 x(16,2) + 553 x(16,3) + 494 x(16,4) + 1033 x(16,5) + 631 x(16,6)
      + 535 x(16,7) + 232 x(16,8) + 878 x(16,9) + 557 x(16,10) + 2248 x(16,11)
      + 362 x(16,12) + 353 x(16,13) + 397 x(16,14) + 593 x(16,15) + x(16,16)
      + 0 u(1) + 0 u(2) + 0 u(3) + 0 u(4) + 0 u(5) + 0 u(6) + 0 u(7) + 0 u(8)
      + 0 u(9) + 0 u(10) + 0 u(11) + 0 u(12) + 0 u(13) + 0 u(14) + 0 u(15)
      + 0 u(16)
Subject To
 indeg(1):   x(2,1) + x(3,1) + x(4,1) + x(5,1) + x(6,1) + x(7,1) + x(8,1)
             + x(9,1) + x(10,1) + x(11,1) + x(12,1) + x(13,1) + x(14,1)
             + x(15,1) + x(16,1)  = 1
 indeg(2):   x(1,2) + x(3,2) + x(4,2) + x(5,2) + x(6,2) + x(7,2) + x(8,2)
             + x(9,2) + x(10,2) + x(11,2) + x(12,2) + x(13,2) + x(14,2)
             + x(15,2) + x(16,2)  = 1
 indeg(3):   x(1,3) + x(2,3) + x(4,3) + x(5,3) + x(6,3) + x(7,3) + x(8,3)
             + x(9,3) + x(10,3) + x(11,3) + x(12,3) + x(13,3) + x(14,3)
             + x(15,3) + x(16,3)  = 1
 indeg(4):   x(1,4) + x(2,4) + x(3,4) + x(5,4) + x(6,4) + x(7,4) + x(8,4)
             + x(9,4) + x(10,4) + x(11,4) + x(12,4) + x(13,4) + x(14,4)
             + x(15,4) + x(16,4)  = 1
 indeg(5):   x(1,5) + x(2,5) + x(3,5) + x(4,5) + x(6,5) + x(7,5) + x(8,5)
             + x(9,5) + x(10,5) + x(11,5) + x(12,5) + x(13,5) + x(14,5)
             + x(15,5) + x(16,5)  = 1
 indeg(6):   x(1,6) + x(2,6) + x(3,6) + x(4,6) + x(5,6) + x(7,6) + x(8,6)
             + x(9,6) + x(10,6) + x(11,6) + x(12,6) + x(13,6) + x(14,6)
             + x(15,6) + x(16,6)  = 1
 indeg(7):   x(1,7) + x(2,7) + x(3,7) + x(4,7) + x(5,7) + x(6,7) + x(8,7)
             + x(9,7) + x(10,7) + x(11,7) + x(12,7) + x(13,7) + x(14,7)
             + x(15,7) + x(16,7)  = 1
 indeg(8):   x(1,8) + x(2,8) + x(3,8) + x(4,8) + x(5,8) + x(6,8) + x(7,8)
             + x(9,8) + x(10,8) + x(11,8) + x(12,8) + x(13,8) + x(14,8)
             + x(15,8) + x(16,8)  = 1
 indeg(9):   x(1,9) + x(2,9) + x(3,9) + x(4,9) + x(5,9) + x(6,9) + x(7,9)
             + x(8,9) + x(10,9) + x(11,9) + x(12,9) + x(13,9) + x(14,9)
             + x(15,9) + x(16,9)  = 1
 indeg(10):  x(1,10) + x(2,10) + x(3,10) + x(4,10) + x(5,10) + x(6,10)
             + x(7,10) + x(8,10) + x(9,10) + x(11,10) + x(12,10) + x(13,10)
             + x(14,10) + x(15,10) + x(16,10)  = 1
 indeg(11):  x(1,11) + x(2,11) + x(3,11) + x(4,11) + x(5,11) + x(6,11)
             + x(7,11) + x(8,11) + x(9,11) + x(10,11) + x(12,11) + x(13,11)
             + x(14,11) + x(15,11) + x(16,11)  = 1
 indeg(12):  x(1,12) + x(2,12) + x(3,12) + x(4,12) + x(5,12) + x(6,12)
             + x(7,12) + x(8,12) + x(9,12) + x(10,12) + x(11,12) + x(13,12)
             + x(14,12) + x(15,12) + x(16,12)  = 1
 indeg(13):  x(1,13) + x(2,13) + x(3,13) + x(4,13) + x(5,13) + x(6,13)
             + x(7,13) + x(8,13) + x(9,13) + x(10,13) + x(11,13) + x(12,13)
             + x(14,13) + x(15,13) + x(16,13)  = 1
 indeg(14):  x(1,14) + x(2,14) + x(3,14) + x(4,14) + x(5,14) + x(6,14)
             + x(7,14) + x(8,14) + x(9,14) + x(10,14) + x(11,14) + x(12,14)
             + x(13,14) + x(15,14) + x(16,14)  = 1
 indeg(15):  x(1,15) + x(2,15) + x(3,15) + x(4,15) + x(5,15) + x(6,15)
             + x(7,15) + x(8,15) + x(9,15) + x(10,15) + x(11,15) + x(12,15)
             + x(13,15) + x(14,15) + x(16,15)  = 1
 indeg(16):  x(1,16) + x(2,16) + x(3,16) + x(4,16) + x(5,16) + x(6,16)
             + x(7,16) + x(8,16) + x(9,16) + x(10,16) + x(11,16) + x(12,16)
             + x(13,16) + x(14,16) + x(15,16)  = 1
 outdeg(1):  x(1,2) + x(1,3) + x(1,4) + x(1,5) + x(1,6) + x(1,7) + x(1,8)
             + x(1,9) + x(1,10) + x(1,11) + x(1,12) + x(1,13) + x(1,14)
             + x(1,15) + x(1,16)  = 1
 outdeg(2):  x(2,1) + x(2,3) + x(2,4) + x(2,5) + x(2,6) + x(2,7) + x(2,8)
             + x(2,9) + x(2,10) + x(2,11) + x(2,12) + x(2,13) + x(2,14)
             + x(2,15) + x(2,16)  = 1
 outdeg(3):  x(3,1) + x(3,2) + x(3,4) + x(3,5) + x(3,6) + x(3,7) + x(3,8)
             + x(3,9) + x(3,10) + x(3,11) + x(3,12) + x(3,13) + x(3,14)
             + x(3,15) + x(3,16)  = 1
 outdeg(4):  x(4,1) + x(4,2) + x(4,3) + x(4,5) + x(4,6) + x(4,7) + x(4,8)
             + x(4,9) + x(4,10) + x(4,11) + x(4,12) + x(4,13) + x(4,14)
             + x(4,15) + x(4,16)  = 1
 outdeg(5):  x(5,1) + x(5,2) + x(5,3) + x(5,4) + x(5,6) + x(5,7) + x(5,8)
             + x(5,9) + x(5,10) + x(5,11) + x(5,12) + x(5,13) + x(5,14)
             + x(5,15) + x(5,16)  = 1
 outdeg(6):  x(6,1) + x(6,2) + x(6,3) + x(6,4) + x(6,5) + x(6,7) + x(6,8)
             + x(6,9) + x(6,10) + x(6,11) + x(6,12) + x(6,13) + x(6,14)
             + x(6,15) + x(6,16)  = 1
 outdeg(7):  x(7,1) + x(7,2) + x(7,3) + x(7,4) + x(7,5) + x(7,6) + x(7,8)
             + x(7,9) + x(7,10) + x(7,11) + x(7,12) + x(7,13) + x(7,14)
             + x(7,15) + x(7,16)  = 1
 outdeg(8):  x(8,1) + x(8,2) + x(8,3) + x(8,4) + x(8,5) + x(8,6) + x(8,7)
             + x(8,9) + x(8,10) + x(8,11) + x(8,12) + x(8,13) + x(8,14)
             + x(8,15) + x(8,16)  = 1
 outdeg(9):  x(9,1) + x(9,2) + x(9,3) + x(9,4) + x(9,5) + x(9,6) + x(9,7)
             + x(9,8) + x(9,10) + x(9,11) + x(9,12) + x(9,13) + x(9,14)
             + x(9,15) + x(9,16)  = 1
 outdeg(10): x(10,1) + x(10,2) + x(10,3) + x(10,4) + x(10,5) + x(10,6)
             + x(10,7) + x(10,8) + x(10,9) + x(10,11) + x(10,12) + x(10,13)
             + x(10,14) + x(10,15) + x(10,16)  = 1
 outdeg(11): x(11,1) + x(11,2) + x(11,3) + x(11,4) + x(11,5) + x(11,6)
             + x(11,7) + x(11,8) + x(11,9) + x(11,10) + x(11,12) + x(11,13)
             + x(11,14) + x(11,15) + x(11,16)  = 1
 outdeg(12): x(12,1) + x(12,2) + x(12,3) + x(12,4) + x(12,5) + x(12,6)
             + x(12,7) + x(12,8) + x(12,9) + x(12,10) + x(12,11) + x(12,13)
             + x(12,14) + x(12,15) + x(12,16)  = 1
 outdeg(13): x(13,1) + x(13,2) + x(13,3) + x(13,4) + x(13,5) + x(13,6)
             + x(13,7) + x(13,8) + x(13,9) + x(13,10) + x(13,11) + x(13,12)
             + x(13,14) + x(13,15) + x(13,16)  = 1
 outdeg(14): x(14,1) + x(14,2) + x(14,3) + x(14,4) + x(14,5) + x(14,6)
             + x(14,7) + x(14,8) + x(14,9) + x(14,10) + x(14,11) + x(14,12)
             + x(14,13) + x(14,15) + x(14,16)  = 1
 outdeg(15): x(15,1) + x(15,2) + x(15,3) + x(15,4) + x(15,5) + x(15,6)
             + x(15,7) + x(15,8) + x(15,9) + x(15,10) + x(15,11) + x(15,12)
             + x(15,13) + x(15,14) + x(15,16)  = 1
 outdeg(16): x(16,1) + x(16,2) + x(16,3) + x(16,4) + x(16,5) + x(16,6)
             + x(16,7) + x(16,8) + x(16,9) + x(16,10) + x(16,11) + x(16,12)
             + x(16,13) + x(16,14) + x(16,15)  = 1
Lazy Constraints
 link(1,2):   x(1,2) + x(2,1) <= 1
 link(1,3):   x(1,3) + x(3,1) <= 1
 link(1,4):   x(1,4) + x(4,1) <= 1
 link(1,5):   x(1,5) + x(5,1) <= 1
 link(1,6):   x(1,6) + x(6,1) <= 1
 link(1,7):   x(1,7) + x(7,1) <= 1
 link(1,8):   x(1,8) + x(8,1) <= 1
 link(1,9):   x(1,9) + x(9,1) <= 1
 link(1,10):  x(1,10) + x(10,1) <= 1
 link(1,11):  x(1,11) + x(11,1) <= 1
 link(1,12):  x(1,12) + x(12,1) <= 1
 link(1,13):  x(1,13) + x(13,1) <= 1
 link(1,14):  x(1,14) + x(14,1) <= 1
 link(1,15):  x(1,15) + x(15,1) <= 1
 link(1,16):  x(1,16) + x(16,1) <= 1
 link(2,3):   x(2,3) + x(3,2) <= 1
 link(2,4):   x(2,4) + x(4,2) <= 1
 link(2,5):   x(2,5) + x(5,2) <= 1
 link(2,6):   x(2,6) + x(6,2) <= 1
 link(2,7):   x(2,7) + x(7,2) <= 1
 link(2,8):   x(2,8) + x(8,2) <= 1
 link(2,9):   x(2,9) + x(9,2) <= 1
 link(2,10):  x(2,10) + x(10,2) <= 1
 link(2,11):  x(2,11) + x(11,2) <= 1
 link(2,12):  x(2,12) + x(12,2) <= 1
 link(2,13):  x(2,13) + x(13,2) <= 1
 link(2,14):  x(2,14) + x(14,2) <= 1
 link(2,15):  x(2,15) + x(15,2) <= 1
 link(2,16):  x(2,16) + x(16,2) <= 1
 link(3,4):   x(3,4) + x(4,3) <= 1
 link(3,5):   x(3,5) + x(5,3) <= 1
 link(3,6):   x(3,6) + x(6,3) <= 1
 link(3,7):   x(3,7) + x(7,3) <= 1
 link(3,8):   x(3,8) + x(8,3) <= 1
 link(3,9):   x(3,9) + x(9,3) <= 1
 link(3,10):  x(3,10) + x(10,3) <= 1
 link(3,11):  x(3,11) + x(11,3) <= 1
 link(3,12):  x(3,12) + x(12,3) <= 1
 link(3,13):  x(3,13) + x(13,3) <= 1
 link(3,14):  x(3,14) + x(14,3) <= 1
 link(3,15):  x(3,15) + x(15,3) <= 1
 link(3,16):  x(3,16) + x(16,3) <= 1
 link(4,5):   x(4,5) + x(5,4) <= 1
 link(4,6):   x(4,6) + x(6,4) <= 1
 link(4,7):   x(4,7) + x(7,4) <= 1
 link(4,8):   x(4,8) + x(8,4) <= 1
 link(4,9):   x(4,9) + x(9,4) <= 1
 link(4,10):  x(4,10) + x(10,4) <= 1
 link(4,11):  x(4,11) + x(11,4) <= 1
 link(4,12):  x(4,12) + x(12,4) <= 1
 link(4,13):  x(4,13) + x(13,4) <= 1
 link(4,14):  x(4,14) + x(14,4) <= 1
 link(4,15):  x(4,15) + x(15,4) <= 1
 link(4,16):  x(4,16) + x(16,4) <= 1
 link(5,6):   x(5,6) + x(6,5) <= 1
 link(5,7):   x(5,7) + x(7,5) <= 1
 link(5,8):   x(5,8) + x(8,5) <= 1
 link(5,9):   x(5,9) + x(9,5) <= 1
 link(5,10):  x(5,10) + x(10,5) <= 1
 link(5,11):  x(5,11) + x(11,5) <= 1
 link(5,12):  x(5,12) + x(12,5) <= 1
 link(5,13):  x(5,13) + x(13,5) <= 1
 link(5,14):  x(5,14) + x(14,5) <= 1
 link(5,15):  x(5,15) + x(15,5) <= 1
 link(5,16):  x(5,16) + x(16,5) <= 1
 link(6,7):   x(6,7) + x(7,6) <= 1
 link(6,8):   x(6,8) + x(8,6) <= 1
 link(6,9):   x(6,9) + x(9,6) <= 1
 link(6,10):  x(6,10) + x(10,6) <= 1
 link(6,11):  x(6,11) + x(11,6) <= 1
 link(6,12):  x(6,12) + x(12,6) <= 1
 link(6,13):  x(6,13) + x(13,6) <= 1
 link(6,14):  x(6,14) + x(14,6) <= 1
 link(6,15):  x(6,15) + x(15,6) <= 1
 link(6,16):  x(6,16) + x(16,6) <= 1
 link(7,8):   x(7,8) + x(8,7) <= 1
 link(7,9):   x(7,9) + x(9,7) <= 1
 link(7,10):  x(7,10) + x(10,7) <= 1
 link(7,11):  x(7,11) + x(11,7) <= 1
 link(7,12):  x(7,12) + x(12,7) <= 1
 link(7,13):  x(7,13) + x(13,7) <= 1
 link(7,14):  x(7,14) + x(14,7) <= 1
 link(7,15):  x(7,15) + x(15,7) <= 1
 link(7,16):  x(7,16) + x(16,7) <= 1
 link(8,9):   x(8,9) + x(9,8) <= 1
 link(8,10):  x(8,10) + x(10,8) <= 1
 link(8,11):  x(8,11) + x(11,8) <= 1
 link(8,12):  x(8,12) + x(12,8) <= 1
 link(8,13):  x(8,13) + x(13,8) <= 1
 link(8,14):  x(8,14) + x(14,8) <= 1
 link(8,15):  x(8,15) + x(15,8) <= 1
 link(8,16):  x(8,16) + x(16,8) <= 1
 link(9,10):  x(9,10) + x(10,9) <= 1
 link(9,11):  x(9,11) + x(11,9) <= 1
 link(9,12):  x(9,12) + x(12,9) <= 1
 link(9,13):  x(9,13) + x(13,9) <= 1
 link(9,14):  x(9,14) + x(14,9) <= 1
 link(9,15):  x(9,15) + x(15,9) <= 1
 link(9,16):  x(9,16) + x(16,9) <= 1
 link(10,11): x(10,11) + x(11,10) <= 1
 link(10,12): x(10,12) + x(12,10) <= 1
 link(10,13): x(10,13) + x(13,10) <= 1
 link(10,14): x(10,14) + x(14,10) <= 1
 link(10,15): x(10,15) + x(15,10) <= 1
 link(10,16): x(10,16) + x(16,10) <= 1
 link(11,12): x(11,12) + x(12,11) <= 1
 link(11,13): x(11,13) + x(13,11) <= 1
 link(11,14): x(11,14) + x(14,11) <= 1
 link(11,15): x(11,15) + x(15,11) <= 1
 link(11,16): x(11,16) + x(16,11) <= 1
 link(12,13): x(12,13) + x(13,12) <= 1
 link(12,14): x(12,14) + x(14,12) <= 1
 link(12,15): x(12,15) + x(15,12) <= 1
 link(12,16): x(12,16) + x(16,12) <= 1
 link(13,14): x(13,14) + x(14,13) <= 1
 link(13,15): x(13,15) + x(15,13) <= 1
 link(13,16): x(13,16) + x(16,13) <= 1
 link(14,15): x(14,15) + x(15,14) <= 1
 link(14,16): x(14,16) + x(16,14) <= 1
 link(15,16): x(15,16) + x(16,15) <= 1
 u1(1):       u(1)  = 1
 uij(2,3):    u(2) - u(3) + 15 x(2,3) <= 14
 uij(2,4):    u(2) - u(4) + 15 x(2,4) <= 14
 uij(2,5):    u(2) - u(5) + 15 x(2,5) <= 14
 uij(2,6):    u(2) - u(6) + 15 x(2,6) <= 14
 uij(2,7):    u(2) - u(7) + 15 x(2,7) <= 14
 uij(2,8):    u(2) - u(8) + 15 x(2,8) <= 14
 uij(2,9):    u(2) - u(9) + 15 x(2,9) <= 14
 uij(2,10):   u(2) - u(10) + 15 x(2,10) <= 14
 uij(2,11):   u(2) - u(11) + 15 x(2,11) <= 14
 uij(2,12):   u(2) - u(12) + 15 x(2,12) <= 14
 uij(2,13):   u(2) - u(13) + 15 x(2,13) <= 14
 uij(2,14):   u(2) - u(14) + 15 x(2,14) <= 14
 uij(2,15):   u(2) - u(15) + 15 x(2,15) <= 14
 uij(2,16):   u(2) - u(16) + 15 x(2,16) <= 14
 uij(3,2):    u(3) - u(2) + 15 x(3,2) <= 14
 uij(3,4):    u(3) - u(4) + 15 x(3,4) <= 14
 uij(3,5):    u(3) - u(5) + 15 x(3,5) <= 14
 uij(3,6):    u(3) - u(6) + 15 x(3,6) <= 14
 uij(3,7):    u(3) - u(7) + 15 x(3,7) <= 14
 uij(3,8):    u(3) - u(8) + 15 x(3,8) <= 14
 uij(3,9):    u(3) - u(9) + 15 x(3,9) <= 14
 uij(3,10):   u(3) - u(10) + 15 x(3,10) <= 14
 uij(3,11):   u(3) - u(11) + 15 x(3,11) <= 14
 uij(3,12):   u(3) - u(12) + 15 x(3,12) <= 14
 uij(3,13):   u(3) - u(13) + 15 x(3,13) <= 14
 uij(3,14):   u(3) - u(14) + 15 x(3,14) <= 14
 uij(3,15):   u(3) - u(15) + 15 x(3,15) <= 14
 uij(3,16):   u(3) - u(16) + 15 x(3,16) <= 14
 uij(4,2):    u(4) - u(2) + 15 x(4,2) <= 14
 uij(4,3):    u(4) - u(3) + 15 x(4,3) <= 14
 uij(4,5):    u(4) - u(5) + 15 x(4,5) <= 14
 uij(4,6):    u(4) - u(6) + 15 x(4,6) <= 14
 uij(4,7):    u(4) - u(7) + 15 x(4,7) <= 14
 uij(4,8):    u(4) - u(8) + 15 x(4,8) <= 14
 uij(4,9):    u(4) - u(9) + 15 x(4,9) <= 14
 uij(4,10):   u(4) - u(10) + 15 x(4,10) <= 14
 uij(4,11):   u(4) - u(11) + 15 x(4,11) <= 14
 uij(4,12):   u(4) - u(12) + 15 x(4,12) <= 14
 uij(4,13):   u(4) - u(13) + 15 x(4,13) <= 14
 uij(4,14):   u(4) - u(14) + 15 x(4,14) <= 14
 uij(4,15):   u(4) - u(15) + 15 x(4,15) <= 14
 uij(4,16):   u(4) - u(16) + 15 x(4,16) <= 14
 uij(5,2):    u(5) - u(2) + 15 x(5,2) <= 14
 uij(5,3):    u(5) - u(3) + 15 x(5,3) <= 14
 uij(5,4):    u(5) - u(4) + 15 x(5,4) <= 14
 uij(5,6):    u(5) - u(6) + 15 x(5,6) <= 14
 uij(5,7):    u(5) - u(7) + 15 x(5,7) <= 14
 uij(5,8):    u(5) - u(8) + 15 x(5,8) <= 14
 uij(5,9):    u(5) - u(9) + 15 x(5,9) <= 14
 uij(5,10):   u(5) - u(10) + 15 x(5,10) <= 14
 uij(5,11):   u(5) - u(11) + 15 x(5,11) <= 14
 uij(5,12):   u(5) - u(12) + 15 x(5,12) <= 14
 uij(5,13):   u(5) - u(13) + 15 x(5,13) <= 14
 uij(5,14):   u(5) - u(14) + 15 x(5,14) <= 14
 uij(5,15):   u(5) - u(15) + 15 x(5,15) <= 14
 uij(5,16):   u(5) - u(16) + 15 x(5,16) <= 14
 uij(6,2):    u(6) - u(2) + 15 x(6,2) <= 14
 uij(6,3):    u(6) - u(3) + 15 x(6,3) <= 14
 uij(6,4):    u(6) - u(4) + 15 x(6,4) <= 14
 uij(6,5):    u(6) - u(5) + 15 x(6,5) <= 14
 uij(6,7):    u(6) - u(7) + 15 x(6,7) <= 14
 uij(6,8):    u(6) - u(8) + 15 x(6,8) <= 14
 uij(6,9):    u(6) - u(9) + 15 x(6,9) <= 14
 uij(6,10):   u(6) - u(10) + 15 x(6,10) <= 14
 uij(6,11):   u(6) - u(11) + 15 x(6,11) <= 14
 uij(6,12):   u(6) - u(12) + 15 x(6,12) <= 14
 uij(6,13):   u(6) - u(13) + 15 x(6,13) <= 14
 uij(6,14):   u(6) - u(14) + 15 x(6,14) <= 14
 uij(6,15):   u(6) - u(15) + 15 x(6,15) <= 14
 uij(6,16):   u(6) - u(16) + 15 x(6,16) <= 14
 uij(7,2):    u(7) - u(2) + 15 x(7,2) <= 14
 uij(7,3):    u(7) - u(3) + 15 x(7,3) <= 14
 uij(7,4):    u(7) - u(4) + 15 x(7,4) <= 14
 uij(7,5):    u(7) - u(5) + 15 x(7,5) <= 14
 uij(7,6):    u(7) - u(6) + 15 x(7,6) <= 14
 uij(7,8):    u(7) - u(8) + 15 x(7,8) <= 14
 uij(7,9):    u(7) - u(9) + 15 x(7,9) <= 14
 uij(7,10):   u(7) - u(10) + 15 x(7,10) <= 14
 uij(7,11):   u(7) - u(11) + 15 x(7,11) <= 14
 uij(7,12):   u(7) - u(12) + 15 x(7,12) <= 14
 uij(7,13):   u(7) - u(13) + 15 x(7,13) <= 14
 uij(7,14):   u(7) - u(14) + 15 x(7,14) <= 14
 uij(7,15):   u(7) - u(15) + 15 x(7,15) <= 14
 uij(7,16):   u(7) - u(16) + 15 x(7,16) <= 14
 uij(8,2):    u(8) - u(2) + 15 x(8,2) <= 14
 uij(8,3):    u(8) - u(3) + 15 x(8,3) <= 14
 uij(8,4):    u(8) - u(4) + 15 x(8,4) <= 14
 uij(8,5):    u(8) - u(5) + 15 x(8,5) <= 14
 uij(8,6):    u(8) - u(6) + 15 x(8,6) <= 14
 uij(8,7):    u(8) - u(7) + 15 x(8,7) <= 14
 uij(8,9):    u(8) - u(9) + 15 x(8,9) <= 14
 uij(8,10):   u(8) - u(10) + 15 x(8,10) <= 14
 uij(8,11):   u(8) - u(11) + 15 x(8,11) <= 14
 uij(8,12):   u(8) - u(12) + 15 x(8,12) <= 14
 uij(8,13):   u(8) - u(13) + 15 x(8,13) <= 14
 uij(8,14):   u(8) - u(14) + 15 x(8,14) <= 14
 uij(8,15):   u(8) - u(15) + 15 x(8,15) <= 14
 uij(8,16):   u(8) - u(16) + 15 x(8,16) <= 14
 uij(9,2):    u(9) - u(2) + 15 x(9,2) <= 14
 uij(9,3):    u(9) - u(3) + 15 x(9,3) <= 14
 uij(9,4):    u(9) - u(4) + 15 x(9,4) <= 14
 uij(9,5):    u(9) - u(5) + 15 x(9,5) <= 14
 uij(9,6):    u(9) - u(6) + 15 x(9,6) <= 14
 uij(9,7):    u(9) - u(7) + 15 x(9,7) <= 14
 uij(9,8):    u(9) - u(8) + 15 x(9,8) <= 14
 uij(9,10):   u(9) - u(10) + 15 x(9,10) <= 14
 uij(9,11):   u(9) - u(11) + 15 x(9,11) <= 14
 uij(9,12):   u(9) - u(12) + 15 x(9,12) <= 14
 uij(9,13):   u(9) - u(13) + 15 x(9,13) <= 14
 uij(9,14):   u(9) - u(14) + 15 x(9,14) <= 14
 uij(9,15):   u(9) - u(15) + 15 x(9,15) <= 14
 uij(9,16):   u(9) - u(16) + 15 x(9,16) <= 14
 uij(10,2):   u(10) - u(2) + 15 x(10,2) <= 14
 uij(10,3):   u(10) - u(3) + 15 x(10,3) <= 14
 uij(10,4):   u(10) - u(4) + 15 x(10,4) <= 14
 uij(10,5):   u(10) - u(5) + 15 x(10,5) <= 14
 uij(10,6):   u(10) - u(6) + 15 x(10,6) <= 14
 uij(10,7):   u(10) - u(7) + 15 x(10,7) <= 14
 uij(10,8):   u(10) - u(8) + 15 x(10,8) <= 14
 uij(10,9):   u(10) - u(9) + 15 x(10,9) <= 14
 uij(10,11):  u(10) - u(11) + 15 x(10,11) <= 14
 uij(10,12):  u(10) - u(12) + 15 x(10,12) <= 14
 uij(10,13):  u(10) - u(13) + 15 x(10,13) <= 14
 uij(10,14):  u(10) - u(14) + 15 x(10,14) <= 14
 uij(10,15):  u(10) - u(15) + 15 x(10,15) <= 14
 uij(10,16):  u(10) - u(16) + 15 x(10,16) <= 14
 uij(11,2):   u(11) - u(2) + 15 x(11,2) <= 14
 uij(11,3):   u(11) - u(3) + 15 x(11,3) <= 14
 uij(11,4):   u(11) - u(4) + 15 x(11,4) <= 14
 uij(11,5):   u(11) - u(5) + 15 x(11,5) <= 14
 uij(11,6):   u(11) - u(6) + 15 x(11,6) <= 14
 uij(11,7):   u(11) - u(7) + 15 x(11,7) <= 14
 uij(11,8):   u(11) - u(8) + 15 x(11,8) <= 14
 uij(11,9):   u(11) - u(9) + 15 x(11,9) <= 14
 uij(11,10):  u(11) - u(10) + 15 x(11,10) <= 14
 uij(11,12):  u(11) - u(12) + 15 x(11,12) <= 14
 uij(11,13):  u(11) - u(13) + 15 x(11,13) <= 14
 uij(11,14):  u(11) - u(14) + 15 x(11,14) <= 14
 uij(11,15):  u(11) - u(15) + 15 x(11,15) <= 14
 uij(11,16):  u(11) - u(16) + 15 x(11,16) <= 14
 uij(12,2):   u(12) - u(2) + 15 x(12,2) <= 14
 uij(12,3):   u(12) - u(3) + 15 x(12,3) <= 14
 uij(12,4):   u(12) - u(4) + 15 x(12,4) <= 14
 uij(12,5):   u(12) - u(5) + 15 x(12,5) <= 14
 uij(12,6):   u(12) - u(6) + 15 x(12,6) <= 14
 uij(12,7):   u(12) - u(7) + 15 x(12,7) <= 14
 uij(12,8):   u(12) - u(8) + 15 x(12,8) <= 14
 uij(12,9):   u(12) - u(9) + 15 x(12,9) <= 14
 uij(12,10):  u(12) - u(10) + 15 x(12,10) <= 14
 uij(12,11):  u(12) - u(11) + 15 x(12,11) <= 14
 uij(12,13):  u(12) - u(13) + 15 x(12,13) <= 14
 uij(12,14):  u(12) - u(14) + 15 x(12,14) <= 14
 uij(12,15):  u(12) - u(15) + 15 x(12,15) <= 14
 uij(12,16):  u(12) - u(16) + 15 x(12,16) <= 14
 uij(13,2):   u(13) - u(2) + 15 x(13,2) <= 14
 uij(13,3):   u(13) - u(3) + 15 x(13,3) <= 14
 uij(13,4):   u(13) - u(4) + 15 x(13,4) <= 14
 uij(13,5):   u(13) - u(5) + 15 x(13,5) <= 14
 uij(13,6):   u(13) - u(6) + 15 x(13,6) <= 14
 uij(13,7):   u(13) - u(7) + 15 x(13,7) <= 14
 uij(13,8):   u(13) - u(8) + 15 x(13,8) <= 14
 uij(13,9):   u(13) - u(9) + 15 x(13,9) <= 14
 uij(13,10):  u(13) - u(10) + 15 x(13,10) <= 14
 uij(13,11):  u(13) - u(11) + 15 x(13,11) <= 14
 uij(13,12):  u(13) - u(12) + 15 x(13,12) <= 14
 uij(13,14):  u(13) - u(14) + 15 x(13,14) <= 14
 uij(13,15):  u(13) - u(15) + 15 x(13,15) <= 14
 uij(13,16):  u(13) - u(16) + 15 x(13,16) <= 14
 uij(14,2):   u(14) - u(2) + 15 x(14,2) <= 14
 uij(14,3):   u(14) - u(3) + 15 x(14,3) <= 14
 uij(14,4):   u(14) - u(4) + 15 x(14,4) <= 14
 uij(14,5):   u(14) - u(5) + 15 x(14,5) <= 14
 uij(14,6):   u(14) - u(6) + 15 x(14,6) <= 14
 uij(14,7):   u(14) - u(7) + 15 x(14,7) <= 14
 uij(14,8):   u(14) - u(8) + 15 x(14,8) <= 14
 uij(14,9):   u(14) - u(9) + 15 x(14,9) <= 14
 uij(14,10):  u(14) - u(10) + 15 x(14,10) <= 14
 uij(14,11):  u(14) - u(11) + 15 x(14,11) <= 14
 uij(14,12):  u(14) - u(12) + 15 x(14,12) <= 14
 uij(14,13):  u(14) - u(13) + 15 x(14,13) <= 14
 uij(14,15):  u(14) - u(15) + 15 x(14,15) <= 14
 uij(14,16):  u(14) - u(16) + 15 x(14,16) <= 14
 uij(15,2):   u(15) - u(2) + 15 x(15,2) <= 14
 uij(15,3):   u(15) - u(3) + 15 x(15,3) <= 14
 uij(15,4):   u(15) - u(4) + 15 x(15,4) <= 14
 uij(15,5):   u(15) - u(5) + 15 x(15,5) <= 14
 uij(15,6):   u(15) - u(6) + 15 x(15,6) <= 14
 uij(15,7):   u(15) - u(7) + 15 x(15,7) <= 14
 uij(15,8):   u(15) - u(8) + 15 x(15,8) <= 14
 uij(15,9):   u(15) - u(9) + 15 x(15,9) <= 14
 uij(15,10):  u(15) - u(10) + 15 x(15,10) <= 14
 uij(15,11):  u(15) - u(11) + 15 x(15,11) <= 14
 uij(15,12):  u(15) - u(12) + 15 x(15,12) <= 14
 uij(15,13):  u(15) - u(13) + 15 x(15,13) <= 14
 uij(15,14):  u(15) - u(14) + 15 x(15,14) <= 14
 uij(15,16):  u(15) - u(16) + 15 x(15,16) <= 14
 uij(16,2):   u(16) - u(2) + 15 x(16,2) <= 14
 uij(16,3):   u(16) - u(3) + 15 x(16,3) <= 14
 uij(16,4):   u(16) - u(4) + 15 x(16,4) <= 14
 uij(16,5):   u(16) - u(5) + 15 x(16,5) <= 14
 uij(16,6):   u(16) - u(6) + 15 x(16,6) <= 14
 uij(16,7):   u(16) - u(7) + 15 x(16,7) <= 14
 uij(16,8):   u(16) - u(8) + 15 x(16,8) <= 14
 uij(16,9):   u(16) - u(9) + 15 x(16,9) <= 14
 uij(16,10):  u(16) - u(10) + 15 x(16,10) <= 14
 uij(16,11):  u(16) - u(11) + 15 x(16,11) <= 14
 uij(16,12):  u(16) - u(12) + 15 x(16,12) <= 14
 uij(16,13):  u(16) - u(13) + 15 x(16,13) <= 14
 uij(16,14):  u(16) - u(14) + 15 x(16,14) <= 14
 uij(16,15):  u(16) - u(15) + 15 x(16,15) <= 14
Bounds
      x(1,1) = 0
 0 <= x(1,2) <= 1
 0 <= x(1,3) <= 1
 0 <= x(1,4) <= 1
 0 <= x(1,5) <= 1
 0 <= x(1,6) <= 1
 0 <= x(1,7) <= 1
 0 <= x(1,8) <= 1
 0 <= x(1,9) <= 1
 0 <= x(1,10) <= 1
 0 <= x(1,11) <= 1
 0 <= x(1,12) <= 1
 0 <= x(1,13) <= 1
 0 <= x(1,14) <= 1
 0 <= x(1,15) <= 1
 0 <= x(1,16) <= 1
 0 <= x(2,1) <= 1
      x(2,2) = 0
 0 <= x(2,3) <= 1
 0 <= x(2,4) <= 1
 0 <= x(2,5) <= 1
 0 <= x(2,6) <= 1
 0 <= x(2,7) <= 1
 0 <= x(2,8) <= 1
 0 <= x(2,9) <= 1
 0 <= x(2,10) <= 1
 0 <= x(2,11) <= 1
 0 <= x(2,12) <= 1
 0 <= x(2,13) <= 1
 0 <= x(2,14) <= 1
 0 <= x(2,15) <= 1
 0 <= x(2,16) <= 1
 0 <= x(3,1) <= 1
 0 <= x(3,2) <= 1
      x(3,3) = 0
 0 <= x(3,4) <= 1
 0 <= x(3,5) <= 1
 0 <= x(3,6) <= 1
 0 <= x(3,7) <= 1
 0 <= x(3,8) <= 1
 0 <= x(3,9) <= 1
 0 <= x(3,10) <= 1
 0 <= x(3,11) <= 1
 0 <= x(3,12) <= 1
 0 <= x(3,13) <= 1
 0 <= x(3,14) <= 1
 0 <= x(3,15) <= 1
 0 <= x(3,16) <= 1
 0 <= x(4,1) <= 1
 0 <= x(4,2) <= 1
 0 <= x(4,3) <= 1
      x(4,4) = 0
 0 <= x(4,5) <= 1
 0 <= x(4,6) <= 1
 0 <= x(4,7) <= 1
 0 <= x(4,8) <= 1
 0 <= x(4,9) <= 1
 0 <= x(4,10) <= 1
 0 <= x(4,11) <= 1
 0 <= x(4,12) <= 1
 0 <= x(4,13) <= 1
 0 <= x(4,14) <= 1
 0 <= x(4,15) <= 1
 0 <= x(4,16) <= 1
 0 <= x(5,1) <= 1
 0 <= x(5,2) <= 1
 0 <= x(5,3) <= 1
 0 <= x(5,4) <= 1
      x(5,5) = 0
 0 <= x(5,6) <= 1
 0 <= x(5,7) <= 1
 0 <= x(5,8) <= 1
 0 <= x(5,9) <= 1
 0 <= x(5,10) <= 1
 0 <= x(5,11) <= 1
 0 <= x(5,12) <= 1
 0 <= x(5,13) <= 1
 0 <= x(5,14) <= 1
 0 <= x(5,15) <= 1
 0 <= x(5,16) <= 1
 0 <= x(6,1) <= 1
 0 <= x(6,2) <= 1
 0 <= x(6,3) <= 1
 0 <= x(6,4) <= 1
 0 <= x(6,5) <= 1
      x(6,6) = 0
 0 <= x(6,7) <= 1
 0 <= x(6,8) <= 1
 0 <= x(6,9) <= 1
 0 <= x(6,10) <= 1
 0 <= x(6,11) <= 1
 0 <= x(6,12) <= 1
 0 <= x(6,13) <= 1
 0 <= x(6,14) <= 1
 0 <= x(6,15) <= 1
 0 <= x(6,16) <= 1
 0 <= x(7,1) <= 1
 0 <= x(7,2) <= 1
 0 <= x(7,3) <= 1
 0 <= x(7,4) <= 1
 0 <= x(7,5) <= 1
 0 <= x(7,6) <= 1
      x(7,7) = 0
 0 <= x(7,8) <= 1
 0 <= x(7,9) <= 1
 0 <= x(7,10) <= 1
 0 <= x(7,11) <= 1
 0 <= x(7,12) <= 1
 0 <= x(7,13) <= 1
 0 <= x(7,14) <= 1
 0 <= x(7,15) <= 1
 0 <= x(7,16) <= 1
 0 <= x(8,1) <= 1
 0 <= x(8,2) <= 1
 0 <= x(8,3) <= 1
 0 <= x(8,4) <= 1
 0 <= x(8,5) <= 1
 0 <= x(8,6) <= 1
 0 <= x(8,7) <= 1
      x(8,8) = 0
 0 <= x(8,9) <= 1
 0 <= x(8,10) <= 1
 0 <= x(8,11) <= 1
 0 <= x(8,12) <= 1
 0 <= x(8,13) <= 1
 0 <= x(8,14) <= 1
 0 <= x(8,15) <= 1
 0 <= x(8,16) <= 1
 0 <= x(9,1) <= 1
 0 <= x(9,2) <= 1
 0 <= x(9,3) <= 1
 0 <= x(9,4) <= 1
 0 <= x(9,5) <= 1
 0 <= x(9,6) <= 1
 0 <= x(9,7) <= 1
 0 <= x(9,8) <= 1
      x(9,9) = 0
 0 <= x(9,10) <= 1
 0 <= x(9,11) <= 1
 0 <= x(9,12) <= 1
 0 <= x(9,13) <= 1
 0 <= x(9,14) <= 1
 0 <= x(9,15) <= 1
 0 <= x(9,16) <= 1
 0 <= x(10,1) <= 1
 0 <= x(10,2) <= 1
 0 <= x(10,3) <= 1
 0 <= x(10,4) <= 1
 0 <= x(10,5) <= 1
 0 <= x(10,6) <= 1
 0 <= x(10,7) <= 1
 0 <= x(10,8) <= 1
 0 <= x(10,9) <= 1
      x(10,10) = 0
 0 <= x(10,11) <= 1
 0 <= x(10,12) <= 1
 0 <= x(10,13) <= 1
 0 <= x(10,14) <= 1
 0 <= x(10,15) <= 1
 0 <= x(10,16) <= 1
 0 <= x(11,1) <= 1
 0 <= x(11,2) <= 1
 0 <= x(11,3) <= 1
 0 <= x(11,4) <= 1
 0 <= x(11,5) <= 1
 0 <= x(11,6) <= 1
 0 <= x(11,7) <= 1
 0 <= x(11,8) <= 1
 0 <= x(11,9) <= 1
 0 <= x(11,10) <= 1
      x(11,11) = 0
 0 <= x(11,12) <= 1
 0 <= x(11,13) <= 1
 0 <= x(11,14) <= 1
 0 <= x(11,15) <= 1
 0 <= x(11,16) <= 1
 0 <= x(12,1) <= 1
 0 <= x(12,2) <= 1
 0 <= x(12,3) <= 1
 0 <= x(12,4) <= 1
 0 <= x(12,5) <= 1
 0 <= x(12,6) <= 1
 0 <= x(12,7) <= 1
 0 <= x(12,8) <= 1
 0 <= x(12,9) <= 1
 0 <= x(12,10) <= 1
 0 <= x(12,11) <= 1
      x(12,12) = 0
 0 <= x(12,13) <= 1
 0 <= x(12,14) <= 1
 0 <= x(12,15) <= 1
 0 <= x(12,16) <= 1
 0 <= x(13,1) <= 1
 0 <= x(13,2) <= 1
 0 <= x(13,3) <= 1
 0 <= x(13,4) <= 1
 0 <= x(13,5) <= 1
 0 <= x(13,6) <= 1
 0 <= x(13,7) <= 1
 0 <= x(13,8) <= 1
 0 <= x(13,9) <= 1
 0 <= x(13,10) <= 1
 0 <= x(13,11) <= 1
 0 <= x(13,12) <= 1
      x(13,13) = 0
 0 <= x(13,14) <= 1
 0 <= x(13,15) <= 1
 0 <= x(13,16) <= 1
 0 <= x(14,1) <= 1
 0 <= x(14,2) <= 1
 0 <= x(14,3) <= 1
 0 <= x(14,4) <= 1
 0 <= x(14,5) <= 1
 0 <= x(14,6) <= 1
 0 <= x(14,7) <= 1
 0 <= x(14,8) <= 1
 0 <= x(14,9) <= 1
 0 <= x(14,10) <= 1
 0 <= x(14,11) <= 1
 0 <= x(14,12) <= 1
 0 <= x(14,13) <= 1
      x(14,14) = 0
 0 <= x(14,15) <= 1
 0 <= x(14,16) <= 1
 0 <= x(15,1) <= 1
 0 <= x(15,2) <= 1
 0 <= x(15,3) <= 1
 0 <= x(15,4) <= 1
 0 <= x(15,5) <= 1
 0 <= x(15,6) <= 1
 0 <= x(15,7) <= 1
 0 <= x(15,8) <= 1
 0 <= x(15,9) <= 1
 0 <= x(15,10) <= 1
 0 <= x(15,11) <= 1
 0 <= x(15,12) <= 1
 0 <= x(15,13) <= 1
 0 <= x(15,14) <= 1
      x(15,15) = 0
 0 <= x(15,16) <= 1
 0 <= x(16,1) <= 1
 0 <= x(16,2) <= 1
 0 <= x(16,3) <= 1
 0 <= x(16,4) <= 1
 0 <= x(16,5) <= 1
 0 <= x(16,6) <= 1
 0 <= x(16,7) <= 1
 0 <= x(16,8) <= 1
 0 <= x(16,9) <= 1
 0 <= x(16,10) <= 1
 0 <= x(16,11) <= 1
 0 <= x(16,12) <= 1
 0 <= x(16,13) <= 1
 0 <= x(16,14) <= 1
 0 <= x(16,15) <= 1
      x(16,16) = 0
      u(1) = 1
 2 <= u(2) <= 16
 2 <= u(3) <= 16
 2 <= u(4) <= 16
 2 <= u(5) <= 16
 2 <= u(6) <= 16
 2 <= u(7) <= 16
 2 <= u(8) <= 16
 2 <= u(9) <= 16
 2 <= u(10) <= 16
 2 <= u(11) <= 16
 2 <= u(12) <= 16
 2 <= u(13) <= 16
 2 <= u(14) <= 16
 2 <= u(15) <= 16
 2 <= u(16) <= 16
Binaries
 x(1,1)  x(1,2)  x(1,3)  x(1,4)  x(1,5)  x(1,6)  x(1,7)  x(1,8)  x(1,9) 
 x(1,10)  x(1,11)  x(1,12)  x(1,13)  x(1,14)  x(1,15)  x(1,16)  x(2,1)  x(2,2) 
 x(2,3)  x(2,4)  x(2,5)  x(2,6)  x(2,7)  x(2,8)  x(2,9)  x(2,10)  x(2,11) 
 x(2,12)  x(2,13)  x(2,14)  x(2,15)  x(2,16)  x(3,1)  x(3,2)  x(3,3)  x(3,4) 
 x(3,5)  x(3,6)  x(3,7)  x(3,8)  x(3,9)  x(3,10)  x(3,11)  x(3,12)  x(3,13) 
 x(3,14)  x(3,15)  x(3,16)  x(4,1)  x(4,2)  x(4,3)  x(4,4)  x(4,5)  x(4,6) 
 x(4,7)  x(4,8)  x(4,9)  x(4,10)  x(4,11)  x(4,12)  x(4,13)  x(4,14)  x(4,15) 
 x(4,16)  x(5,1)  x(5,2)  x(5,3)  x(5,4)  x(5,5)  x(5,6)  x(5,7)  x(5,8) 
 x(5,9)  x(5,10)  x(5,11)  x(5,12)  x(5,13)  x(5,14)  x(5,15)  x(5,16)  x(6,1) 
 x(6,2)  x(6,3)  x(6,4)  x(6,5)  x(6,6)  x(6,7)  x(6,8)  x(6,9)  x(6,10) 
 x(6,11)  x(6,12)  x(6,13)  x(6,14)  x(6,15)  x(6,16)  x(7,1)  x(7,2)  x(7,3) 
 x(7,4)  x(7,5)  x(7,6)  x(7,7)  x(7,8)  x(7,9)  x(7,10)  x(7,11)  x(7,12) 
 x(7,13)  x(7,14)  x(7,15)  x(7,16)  x(8,1)  x(8,2)  x(8,3)  x(8,4)  x(8,5) 
 x(8,6)  x(8,7)  x(8,8)  x(8,9)  x(8,10)  x(8,11)  x(8,12)  x(8,13)  x(8,14) 
 x(8,15)  x(8,16)  x(9,1)  x(9,2)  x(9,3)  x(9,4)  x(9,5)  x(9,6)  x(9,7) 
 x(9,8)  x(9,9)  x(9,10)  x(9,11)  x(9,12)  x(9,13)  x(9,14)  x(9,15)  x(9,16) 
 x(10,1)  x(10,2)  x(10,3)  x(10,4)  x(10,5)  x(10,6)  x(10,7)  x(10,8) 
 x(10,9)  x(10,10)  x(10,11)  x(10,12)  x(10,13)  x(10,14)  x(10,15)  x(10,16) 
 x(11,1)  x(11,2)  x(11,3)  x(11,4)  x(11,5)  x(11,6)  x(11,7)  x(11,8) 
 x(11,9)  x(11,10)  x(11,11)  x(11,12)  x(11,13)  x(11,14)  x(11,15)  x(11,16) 
 x(12,1)  x(12,2)  x(12,3)  x(12,4)  x(12,5)  x(12,6)  x(12,7)  x(12,8) 
 x(12,9)  x(12,10)  x(12,11)  x(12,12)  x(12,13)  x(12,14)  x(12,15)  x(12,16) 
 x(13,1)  x(13,2)  x(13,3)  x(13,4)  x(13,5)  x(13,6)  x(13,7)  x(13,8) 
 x(13,9)  x(13,10)  x(13,11)  x(13,12)  x(13,13)  x(13,14)  x(13,15)  x(13,16) 
 x(14,1)  x(14,2)  x(14,3)  x(14,4)  x(14,5)  x(14,6)  x(14,7)  x(14,8) 
 x(14,9)  x(14,10)  x(14,11)  x(14,12)  x(14,13)  x(14,14)  x(14,15)  x(14,16) 
 x(15,1)  x(15,2)  x(15,3)  x(15,4)  x(15,5)  x(15,6)  x(15,7)  x(15,8) 
 x(15,9)  x(15,10)  x(15,11)  x(15,12)  x(15,13)  x(15,14)  x(15,15)  x(15,16) 
 x(16,1)  x(16,2)  x(16,3)  x(16,4)  x(16,5)  x(16,6)  x(16,7)  x(16,8) 
 x(16,9)  x(16,10)  x(16,11)  x(16,12)  x(16,13)  x(16,14)  x(16,15)  x(16,16) 
Generals
 u(1)  u(2)  u(3)  u(4)  u(5)  u(6)  u(7)  u(8)  u(9)  u(10)  u(11)  u(12) 
 u(13)  u(14)  u(15)  u(16) 
End
